SCIP Status        : solving was interrupted [time limit reached]
Total Time         :    3600.01
  solving          :    3600.01
  presolving       :       0.18 (included in solving)
  reading          :       0.00
  copying          :       2.07 (47 #copies) (minimal 0.00, maximal 0.20, average 0.04)
Original Problem   :
  Problem name     : bbbenchmark/g05_100.4.cut
  Variables        : 101 (100 binary, 0 integer, 0 implicit integer, 1 continuous)
  Constraints      : 1 initial, 1 maximal
  Objective        : minimize, 1 non-zeros (abs.min = 1, abs.max = 1)
Presolved Problem  :
  Problem name     : t_bbbenchmark/g05_100.4.cut
  Variables        : 1765 (100 binary, 0 integer, 1648 implicit integer, 17 continuous)
  Constraints      : 1697 initial, 11705 maximal
  Objective        : minimize, 1 non-zeros (abs.min = 1, abs.max = 1)
  Nonzeros         : 8443 constraint, 202 clique table
Presolvers         :   ExecTime  SetupTime  Calls  FixedVars   AggrVars   ChgTypes  ChgBounds   AddHoles    DelCons    AddCons   ChgSides   ChgCoefs
  boundshift       :       0.00       0.00      0          0          0          0          0          0          0          0          0          0
  convertinttobin  :       0.00       0.00      0          0          0          0          0          0          0          0          0          0
  domcol           :       0.00       0.00      1          0          0          0          0          0          0          0          0          0
  dualagg          :       0.00       0.00      0          0          0          0          0          0          0          0          0          0
  dualcomp         :       0.00       0.00      1          0          0          0          0          0          0          0          0          0
  dualinfer        :       0.00       0.00      0          0          0          0          0          0          0          0          0          0
  dualsparsify     :       0.00       0.00      1          0          0          0          0          0          0          0          0          0
  gateextraction   :       0.00       0.00      0          0          0          0          0          0          0          0          0          0
  implics          :       0.00       0.00      2          0          0          0          0          0          0          0          0          0
  inttobinary      :       0.00       0.00      0          0          0          0          0          0          0          0          0          0
  qpkktref         :       0.00       0.00      0          0          0          0          0          0          0          0          0          0
  redvub           :       0.00       0.00      0          0          0          0          0          0          0          0          0          0
  sparsify         :       0.00       0.00      1          0          0          0          0          0          0          0          0          0
  stuffing         :       0.00       0.00      0          0          0          0          0          0          0          0          0          0
  trivial          :       0.00       0.00      4          0          0          0          0          0          0          0          0          0
  tworowbnd        :       0.00       0.00      0          0          0          0          0          0          0          0          0          0
  dualfix          :       0.00       0.00      4          0          0          0          0          0          0          0          0          0
  genvbounds       :       0.00       0.00      0          0          0          0          0          0          0          0          0          0
  probing          :       0.14       0.00      1          0          0          0          0          0          0          0          0          0
  pseudoobj        :       0.00       0.00      1          0          0          0          1          0          0          0          0          0
  symmetry         :       0.00       0.00      0          0          0          0          0          0          0          0          0          0
  vbounds          :       0.00       0.00      1          0          0          0          0          0          0          0          0          0
  varbound         :       0.00       0.00      2          0          0          0          0          0          0          0          0          0
  and              :       0.00       0.00      2          0          0          0          0          0          0          0          0          0
  linear           :       0.00       0.00      2          0          0          0          0          0          0          0          0          0
  logicor          :       0.00       0.00      0          0          0          0          0          0          0          0          0          0
  bounddisjunction :       0.00       0.00      0          0          0          0          0          0          0          0          0          0
  nonlinear        :       0.04       0.01      5          0          0          0          1          0          0       1696          0          0
  benders          :       0.00       0.00      0          0          0          0          0          0          0          0          0          0
  components       :       0.00       0.00      1          0          0          0          0          0          0          0          0          0
  root node        :          -          -      -          0          -          -         13          -          -          -          -          -
Constraints        :     Number  MaxNumber  #Separate #Propagate    #EnfoLP    #EnfoRelax  #EnfoPS    #Check   #ResProp    Cutoffs    DomReds       Cuts    Applied      Conss   Children
  benderslp        :          0          0          0          0      79594          0          0      13673          0          0          0          0          0          0          0
  integral         :          0          0          0          0      79594          0          0      13673          0          0        702          0          0        351     158836
  varbound         :         16         16        111     681966          0          0          0         31          1          0      53461          0          0          0          0
  and              :       1648       1648      99962     737629          2          0          0         31     604211         12     358239      15803      13575          0          0
  linear           :         33+        77        111     737669          2          0          0         29       1487         39     218585          0          0          0          0
  logicor          :          0+      9394          0      91944          0          0          0          0        159        503         29          0          0          0          0
  bounddisjunction :          0+      1028          0      44892          0          0          0          0          1         31          1          0          0          0          0
  benders          :          0          0          0          0          2          0          0         29          0          0          0          0          0          0          0
  countsols        :          0          0          0          0          2          0          0         29          0          0          0          0          0          0          0
  components       :          0          0          0          0          0          0          0          0          0          0          0          0          0          0          0
Constraint Timings :  TotalTime  SetupTime   Separate  Propagate     EnfoLP     EnfoPS     EnfoRelax   Check    ResProp    SB-Prop
  benderslp        :       0.08       0.00       0.00       0.00       0.07       0.00       0.00       0.01       0.00       0.00
  integral         :      53.23       0.00       0.00       0.00      53.21       0.00       0.00       0.02       0.00       0.00
  varbound         :       0.80       0.00       0.00       0.80       0.00       0.00       0.00       0.00       0.00       0.00
  and              :      92.90       0.00      64.63      27.13       0.00       0.00       0.00       0.00       0.43       0.71
  linear           :       3.92       0.00       0.04       3.81       0.00       0.00       0.00       0.00       0.01       0.06
  logicor          :      11.52       0.00       0.00      11.51       0.00       0.00       0.00       0.00       0.00       0.01
  bounddisjunction :       1.67       0.00       0.00       1.67       0.00       0.00       0.00       0.00       0.00       0.00
  benders          :       0.00       0.00       0.00       0.00       0.00       0.00       0.00       0.00       0.00       0.00
  countsols        :       0.00       0.00       0.00       0.00       0.00       0.00       0.00       0.00       0.00       0.00
  components       :       0.21       0.00       0.00       0.21       0.00       0.00       0.00       0.00       0.00       0.00
Propagators        : #Propagate   #ResProp    Cutoffs    DomReds
  dualfix          :          4          0          0          0
  genvbounds       :          0          0          0          0
  nlobbt           :          0          0          0          0
  obbt             :          0          0          0          0
  probing          :          0          0          0          0
  pseudoobj        :     314737          0          0         27
  redcost          :     188560          0          0      36586
  rootredcost      :         14          0          0          0
  symmetry         :          0          0          0          0
  vbounds          :     102742          0          0          0
Propagator Timings :  TotalTime  SetupTime   Presolve  Propagate    ResProp    SB-Prop
  dualfix          :       0.00       0.00       0.00       0.00       0.00       0.00
  genvbounds       :       0.45       0.00       0.00       0.45       0.00       0.00
  nlobbt           :       0.00       0.00       0.00       0.00       0.00       0.00
  obbt             :       0.00       0.00       0.00       0.00       0.00       0.00
  probing          :       0.14       0.00       0.14       0.00       0.00       0.00
  pseudoobj        :       0.69       0.00       0.00       0.69       0.00       0.00
  redcost          :       9.43       0.00       0.00       9.43       0.00       0.00
  rootredcost      :       0.64       0.00       0.00       0.61       0.00       0.03
  symmetry         :       0.29       0.00       0.00       0.27       0.00       0.02
  vbounds          :       0.52       0.00       0.00       0.52       0.00       0.00
Conflict Analysis  :       Time      Calls    Success    DomReds  Conflicts   Literals    Reconvs ReconvLits   Dualrays   Nonzeros   LP Iters   (pool size: [10000,10000])
  propagation      :       0.02        547        374          -        454       60.9          0        0.0          -          -          -
  infeasible LP    :       0.08         75         75          -       2524      145.7          0        0.0        254      124.8          0
  bound exceed. LP :      29.60       7311       7063          -     174787      105.4          0        0.0          0        0.0      75747
  strong branching :       0.00          0          0          -          0        0.0          0        0.0          -          -          0
  pseudo solution  :       0.00          0          0          -          0        0.0          0        0.0          -          -          -
  applied globally :       0.81          -          -          0      42990      116.6          -          -        254          -          -
  applied locally  :          -          -          -          0          0        0.0          -          -          0          -          -
Separators         :   ExecTime  SetupTime      Calls  RootCalls    Cutoffs    DomReds  FoundCuts ViaPoolAdd  DirectAdd    Applied ViaPoolApp  DirectApp      Conss
  cut pool         :       6.34          -      29041        138          -          -      47083    2224149          -          -          -          -          -    (maximal pool size:       4342)
  aggregation      :      22.01       0.00       9457        111          0          0       2037       3101          0       1189       1189          0          0
  > cmir           :          -          -          -          -          -          -          -       3094          0       1182       1182          0          -
  > flowcover      :          -          -          -          -          -          -          -          7          0          7          7          0          -
  > knapsackcover  :          -          -          -          -          -          -          -          0          0          0          0          0          -
  cgmip            :       0.00       0.00          0          0          0          0          0          0          0          0          0          0          0
  clique           :       0.00       0.00        111        111          0          0          0          0          0          0          0          0          0
  closecuts        :       0.00       0.00          0          0          0          0          0          0          0          0          0          0          0
  convexproj       :       0.00       0.00          0          0          0          0          0          0          0          0          0          0          0
  disjunctive      :       0.00       0.00          0          0          0          0          0          0          0          0          0          0          0
  eccuts           :       0.00       0.00          0          0          0          0          0          0          0          0          0          0          0
  gauge            :       0.00       0.00          0          0          0          0          0          0          0          0          0          0          0
  gomory           :       0.00       0.00          0          0          0          0          0          0          0          0          0          0          0
  > gomorymi       :          -          -          -          -          -          -          -          0          0          0          0          0          -
  > strongcg       :          -          -          -          -          -          -          -          0          0          0          0          0          -
  impliedbounds    :       0.52       0.00       9457        111          0          0         83         13          0          9          9          0          0
  interlattice     :       0.33       0.00         79         79          0          0         79          0         79         79          0         79          0
  interminor       :       0.00       0.00          0          0          0          0          0          0          0          0          0          0          0
  intersub         :       0.00       0.00          0          0          0          0          0          0          0          0          0          0          0
  intobj           :       0.00       0.00          0          0          0          0          0          0          0          0          0          0          0
  mcf              :       0.00       0.00          1          1          0          0          0          0          0          0          0          0          0
  minor            :       0.02       0.00          0          0          0          0          0          0          0          0          0          0          0
  mixing           :       0.03       0.00       9457        111          0          0          0          0          0          0          0          0          0
  oddcycle         :       0.00       0.00          0          0          0          0          0          0          0          0          0          0          0
  rapidlearning    :       0.03       0.00          0          0          0          0          0          0          0          0          0          0          0
  rlt              :       0.00       0.00         10         10          0          0          0          0          0          0          0          0          0
  zerohalf         :      61.09       0.00       8261         20          0          0      44963    2221035          0     237539     237539          0          0
Cutselectors       :   ExecTime  SetupTime      Calls  RootCalls   Selected     Forced   Filtered  RootSelec   RootForc   RootFilt 
  hybrid           :       1.62       0.00      23208        111     252391          0    1987640        279          0          4
Pricers            :   ExecTime  SetupTime      Calls       Vars
  problem variables:       0.00          -          0          0
Branching Rules    :   ExecTime  SetupTime   BranchLP  BranchExt   BranchPS    Cutoffs    DomReds       Cuts      Conss   Children
  allfullstrong    :       0.00       0.00          0          0          0          0          0          0          0          0
  cloud            :       0.00       0.00          0          0          0          0          0          0          0          0
  distribution     :       0.00       0.00          0          0          0          0          0          0          0          0
  fullstrong       :       0.00       0.00          0          0          0          0          0          0          0          0
  inference        :       0.00       0.00          0          0          0          0          0          0          0          0
  leastinf         :       0.00       0.00          0          0          0          0          0          0          0          0
  lookahead        :       0.00       0.00          0          0          0          0          0          0          0          0
  mostinf          :       0.00       0.00          0          0          0          0          0          0          0          0
  multaggr         :       0.00       0.00          0          0          0          0          0          0          0          0
  nodereopt        :       0.00       0.00          0          0          0          0          0          0          0          0
  pscost           :       0.00       0.00          0          0          0          0          0          0          0          0
  random           :       0.00       0.00          0          0          0          0          0          0          0          0
  relpscost        :      52.96       0.00      79592          0          0          0        702          0        351     158836
  vanillafullstrong:       0.00       0.00          0          0          0          0          0          0          0          0
Primal Heuristics  :   ExecTime  SetupTime      Calls      Found       Best
  LP solutions     :       0.00          -          -          2          2
  relax solutions  :       0.00          -          -          0          0
  pseudo solutions :       0.00          -          -          0          0
  strong branching :       0.04          -          -          0          0
  actconsdiving    :       0.00       0.00          0          0          0
  adaptivediving   :      14.33       0.00        113          1          1
  alns             :       4.19       0.00         22         12         12
  bound            :       0.00       0.00          0          0          0
  clique           :       0.00       0.00          1          0          0
  coefdiving       :       0.00       0.00          0          0          0
  completesol      :       0.00       0.00          0          0          0
  conflictdiving   :     164.58       0.00       1385          0          0
  crossover        :       2.76       0.00          4          0          0
  dins             :       0.00       0.00          0          0          0
  distributiondivin:      95.73       0.00        442          0          0
  dps              :       0.00       0.00          0          0          0
  dualval          :       0.00       0.00          0          0          0
  farkasdiving     :       0.01       0.00          0          0          0
  feaspump         :       0.15       0.00          1          1          1
  fixandinfer      :       0.00       0.00          0          0          0
  fracdiving       :      73.84       0.00        653          0          0
  gins             :       0.11       0.00          0          0          0
  guideddiving     :      74.18       0.00        634          1          1
  indicator        :       0.06       0.00          0          0          0
  indicatordiving  :       0.00       0.00          0          0          0
  intdiving        :       0.00       0.00          0          0          0
  intshifting      :       0.60       0.00         84          0          0
  linesearchdiving :      72.15       0.00        547          0          0
  localbranching   :       0.00       0.00          0          0          0
  locks            :       0.01       0.00          1          0          0
  lpface           :       0.10       0.00          0          0          0
  mpec             :     179.64       0.00         11          2          2
  multistart       :       0.00       0.00          0          0          0
  mutation         :       0.00       0.00          0          0          0
  nlpdiving        :      27.56       0.00          2          0          0
  objpscostdiving  :      41.08       0.00         45          3          0
  octane           :       0.00       0.00          0          0          0
  ofins            :       0.08       0.00          0          0          0
  oneopt           :       0.05       0.00         17          0          0
  padm             :       0.00       0.00          0          0          0
  proximity        :       0.00       0.00          0          0          0
  pscostdiving     :      73.27       0.00        465          1          1
  randrounding     :       0.84       0.00      13641          0          0
  rens             :       0.00       0.00          0          0          0
  reoptsols        :       0.00       0.00          0          0          0
  repair           :       0.00       0.00          0          0          0
  rins             :       0.99       0.00         20          1          1
  rootsoldiving    :      36.57       0.00         41          0          0
  rounding         :       0.97       0.00       4399          0          0
  shiftandpropagate:       0.00       0.00          0          0          0
  shifting         :      22.58       0.00       6700          1          1
  simplerounding   :       0.10       0.00          0          0          0
  subnlp           :     108.44       0.00          0          0          0
  trivial          :       0.00       0.00          2          2          2
  trivialnegation  :       0.00       0.00          0          0          0
  trustregion      :       0.00       0.00          0          0          0
  trysol           :       0.15       0.00          0          0          0
  twoopt           :       0.00       0.00          0          0          0
  undercover       :       1.07       0.00          1          1          1
  vbounds          :       0.00       0.00          0          0          0
  veclendiving     :      71.57       0.00        563          0          0
  zeroobj          :       0.00       0.00          0          0          0
  zirounding       :       0.27       0.00       1000          0          0
  other solutions  :          -          -          -          0          -
Diving (single)    :      Calls      Nodes   LP Iters Backtracks  Conflicts   MinDepth   MaxDepth   AvgDepth  RoundSols  NLeafSols  MinSolDpt  MaxSolDpt  AvgSolDpt
  actconsdiving    :          0          -          -          -          -          -          -          -          -          -          -          -          -
  coefdiving       :          0          -          -          -          -          -          -          -          -          -          -          -          -
  conflictdiving   :       1385      56354    1659849       1439      82967         52         84       62.7          0          -          -          -          -
  distributiondivin:        442      16892     717700        502       8397         51         75       58.2          0          -          -          -          -
  farkasdiving     :          0          -          -          -          -          -          -          -          -          -          -          -          -
  fracdiving       :        653      75803     712905        108       1578         50        608      138.2          0          -          -          -          -
  guideddiving     :        634      67274     723894        112       2677         58        311      128.2          0          1         97         97       97.0
  indicatordiving  :          0          -          -          -          -          -          -          -          -          -          -          -          -
  linesearchdiving :        547      23427     715251        478      29626         47        189       63.6          0          -          -          -          -
  pscostdiving     :        465      18693     732556        485       9984         50         75       61.0          0          1         75         75       75.0
  veclendiving     :        563      23085     714184        557      37107         52         84       61.5          0          -          -          -          -
Diving (adaptive)  :      Calls      Nodes   LP Iters Backtracks  Conflicts   MinDepth   MaxDepth   AvgDepth  RoundSols  NLeafSols  MinSolDpt  MaxSolDpt  AvgSolDpt
  actconsdiving    :         13        438      16586         13        139         52         64       57.6          0          -          -          -          -
  coefdiving       :         32       1390      41433         26       1705         54         79       63.2          0          -          -          -          -
  conflictdiving   :          0          -          -          -          -          -          -          -          -          -          -          -          -
  distributiondivin:          0          -          -          -          -          -          -          -          -          -          -          -          -
  farkasdiving     :          0          -          -          -          -          -          -          -          -          -          -          -          -
  fracdiving       :          3        902       4514          1          3        132        564      322.0          0          -          -          -          -
  guideddiving     :          7        817       8866          0          0         90        250      135.6          0          1         90         90       90.0
  indicatordiving  :          0          -          -          -          -          -          -          -          -          -          -          -          -
  linesearchdiving :         32       1585      44038         18       1585         50         82       67.5          0          -          -          -          -
  pscostdiving     :          6        252       9238          6        135         58         63       61.5          0          -          -          -          -
  veclendiving     :         20        898      25634         16       1373         53         82       64.2          0          -          -          -          -
Neighborhoods      :      Calls  SetupTime  SolveTime SolveNodes       Sols       Best       Exp3  EpsGreedy        UCB TgtFixRate  Opt  Inf Node Stal  Sol  Usr Othr Actv
  rens             :          4       0.34       0.19         72          3          3    0.00000   -1.00000    0.57013      0.578    0    2    0    1    1    0    0    1
  rins             :          1       0.01       0.00          1          0          0    0.00000   -1.00000    0.56943      0.700    0    1    0    0    0    0    0    1
  mutation         :         11       1.31       0.87        700          6          6    0.00000   -1.00000    0.55326      0.748    1    2    0    7    1    0    0    1
  localbranching   :          1       0.02       0.00          1          0          0    0.00000   -1.00000    0.56983      0.700    0    1    0    0    0    0    0    1
  crossover        :          1       0.02       0.01          1          0          0    0.00000   -1.00000    0.56983      0.700    0    1    0    0    0    0    0    1
  proximity        :          1       0.01       0.00          1          0          0    0.00000   -1.00000    0.56983      0.700    0    1    0    0    0    0    0    1
  zeroobjective    :          1       0.02       0.01          3          0          0    0.00000   -1.00000    0.56783      0.700    0    1    0    0    0    0    0    1
  dins             :          2       0.03       1.22       3905          3          3    0.00000   -1.00000    0.49971      0.850    1    0    0    1    0    0    0    1
  trustregion      :          0       0.00       0.00          0          0          0    0.00000   -1.00000    1.00000      0.900    0    0    0    0    0    0    0    0
Expressions        :   #IntEval  IntEvalTi   #RevProp  RevPropTi    DomReds    Cutoffs  #Estimate  EstimTime  Branching  #Simplify SimplifyTi Simplified
  pow              :          0       0.00          0       0.00          0          0          0       0.00          0          0       0.00          0
  prod             :       9900       0.00          0       0.00          0          0          0       0.00          0       6598       0.00          0
  sum              :          8       0.00          2       0.00          0          0          0       0.00          0          3       0.00          2
  var              :       6104       0.00          0       0.00          0          0          0       0.00          0      15163       0.02          0
  varidx           :          0       0.00          0       0.00          0          0          0       0.00          0          0       0.00          0
LP                 :       Time      Calls Iterations  Iter/call   Iter/sec  Time-0-It Calls-0-It    ItLimit
  primal LP        :     119.76      13290          0       0.00       0.00     119.67      13290
  dual LP          :    2025.49     143160   14011762     102.30    6917.71       2.19       6190
  lex dual LP      :       0.00          0          0       0.00          -
  barrier LP       :       0.00          0          0       0.00          -       0.00          0
  resolve instable :       0.00          0          0       0.00          -
  diving/probing LP:     600.92      19385    6592341     340.07   10970.41
  strong branching :      26.89       1975     272207     137.83   10122.98          -          -        246
    (at root node) :          -         20       4812     240.60          -
  conflict analysis:      11.57       7678      75747       9.87    6546.85
NLP relaxation     :
  solve time       :      27.50 (8 calls)
  convexity        :  nonconvex (49 linear rows, 0 convex ineq., 0 nonconvex ineq., 1648 nonlinear eq. or two-sided ineq.)
NLP Solvers        :  #Problems  ProblemTi    #Solves  SolveTime      #Iter  Time/Iter      #Okay #TimeLimit #IterLimit #LObjLimit #Interrupt  #NumError #EvalError  #OutOfMem #LicenseEr #OtherTerm   #GlobOpt    #LocOpt  #Feasible #LocInfeas #GlobInfea #Unbounded   #Unknown
  ipopt            :         12       5.26         38     209.70       1866       0.11         37          0          1          0          0          0          0          0          0          0          0         26          1          9          0          0          2
B&B Tree           :
  number of runs   :          1
  nodes            :     113626 (79418 internal, 34208 leaves)
  feasible leaves  :          2
  infeas. leaves   :         38
  objective leaves :      34168
  nodes (total)    :     113626 (79418 internal, 34208 leaves)
  nodes left       :      45067
  max depth        :         62
  max depth (total):         62
  backtracks       :      24426 (21.5%)
  early backtracks :          0 (0.0%)
  nodes exc. ref.  :          0 (0.0%)
  delayed cutoffs  :          4
  repropagations   :        631 (66 domain reductions, 2 cutoffs)
  avg switch length:       6.62
  switching time   :     148.53
Estim. Tree Size   :     227540
Estimation Tree    : 158837 nodes (113770 visited, 79418 internal, 34352 leaves, 45067 open), weight: 0.0000 completed 0.0973
Estimations        :      estim      value      trend resolution     smooth
  wbe              : 52179597673528          -          -          -          -
  tree-profile     :         -1          -          -          -          -
  gap              :    1102724    0.68093    0.00004         64    1114569
  tree-weight      :     227540    0.00000    0.00000         64     222569
  leaf-frequency   :     227540    0.30194   -0.00014         64     797074
  ssg              :     768648    0.84633   -0.00015         64     773775
  open-nodes       :     227540 45067.00000  165.84704         64     222569
Root Node          :
  First LP value   : -1.00000000000000e+00
  First LP Iters   :       1623 (20287.50 Iter/sec)
  First LP Time    :       0.08
  Final Dual Bound : -9.50025252525252e-01
  Final Root Iters :       3522
  Root LP Estimate : -2.72433309538067e-01
Solution           :
  Solutions found  :         28 (25 improvements)
  First Solution   : +1.00000000000000e+05   (in run 1, after 0 nodes, 0.00 seconds, depth 0, found by <trivial>)
  Gap First Sol.   :   infinite
  Gap Last Sol.    :      48.70 %
  Primal Bound     : -5.74141414141412e-01   (in run 1, after 65508 nodes, 864.13 seconds, depth 40, found by <alns>)
  Dual Bound       : -8.43177964248259e-01
  Gap              :      46.86 %
Integrals          :      Total       Avg%
  primal-dual      :  120767.82      33.55
  primal-ref       :          -          - (not evaluated)
  dual-ref         :          -          - (not evaluated)
